$molecule
0 1
X
C X 1.0
N C 1.169686 X 90.0
H C 1.066674 X 90.0 N 180.0
$end

$rem
JOBTYPE OPT
EXCHANGE HF
CORRELATION MP2
BASIS 6-311G**
$end
@@@
$molecule
0 1
C
H 1 1.066674
N 1 1.169686 2 160.0
$end

$rem
JOBTYPE OPT
EXCHANGE HF
CORRELATION MP2
BASIS 6-311G**
SCF_GUESS READ
$end

$opt
CONSTRAINT
bend 3 1 2 160.0
ENDCONSTRAINT
$end
@@@
$molecule
read
$end

$rem
JOBTYPE OPT
EXCHANGE HF
CORRELATION MP2
BASIS 6-311G**
SCF_GUESS READ
$end

$opt
CONSTRAINT
bend 3 1 2 150.0
ENDCONSTRAINT
$end
@@@
$molecule
read
$end

$rem
JOBTYPE OPT
EXCHANGE HF
CORRELATION MP2
BASIS 6-311G**
SCF_GUESS READ
$end

$opt
CONSTRAINT
bend 3 1 2 140.0
ENDCONSTRAINT
$end
@@@
$molecule
read
$end

$rem
JOBTYPE OPT
EXCHANGE HF
CORRELATION MP2
BASIS 6-311G**
SCF_GUESS READ
$end

$opt
CONSTRAINT
bend 3 1 2 130.0
ENDCONSTRAINT
$end
@@@
$molecule
read
$end

$rem
JOBTYPE OPT
EXCHANGE HF
CORRELATION MP2
BASIS 6-311G**
SCF_GUESS READ
$end

$opt
CONSTRAINT
bend 3 1 2 120.0
ENDCONSTRAINT
$end
@@@
$molecule
read
$end

$rem
JOBTYPE OPT
EXCHANGE HF
CORRELATION MP2
BASIS 6-311G**
SCF_GUESS READ
$end

$opt
CONSTRAINT
bend 3 1 2 110.0
ENDCONSTRAINT
$end
@@@
$molecule
read
$end

$rem
JOBTYPE OPT
EXCHANGE HF
CORRELATION MP2
BASIS 6-311G**
SCF_GUESS READ
$end

$opt
CONSTRAINT
bend 3 1 2 100.0
ENDCONSTRAINT
$end
@@@
$molecule
read
$end

$rem
JOBTYPE OPT
EXCHANGE HF
CORRELATION MP2
BASIS 6-311G**
SCF_GUESS READ
$end

$opt
CONSTRAINT
bend 3 1 2 90.0
ENDCONSTRAINT
$end
@@@
$molecule
read
$end

$rem
JOBTYPE OPT
EXCHANGE HF
CORRELATION MP2
BASIS 6-311G**
SCF_GUESS READ
$end

$opt
CONSTRAINT
bend 3 1 2 80.0
ENDCONSTRAINT
$end
@@@
$molecule
read
$end

$rem
JOBTYPE OPT
EXCHANGE HF
CORRELATION MP2
BASIS 6-311G**
SCF_GUESS READ
$end

$opt
CONSTRAINT
bend 3 1 2 70.0
ENDCONSTRAINT
$end
@@@
$molecule
read
$end

$rem
JOBTYPE OPT
EXCHANGE HF
CORRELATION MP2
BASIS 6-311G**
SCF_GUESS READ
$end

$opt
CONSTRAINT
bend 3 1 2 60.0
ENDCONSTRAINT
$end
@@@
$molecule
read
$end

$rem
JOBTYPE OPT
EXCHANGE HF
CORRELATION MP2
BASIS 6-311G**
SCF_GUESS READ
$end

$opt
CONSTRAINT
bend 3 1 2 50.0
ENDCONSTRAINT
$end
@@@
$molecule
read
$end

$rem
JOBTYPE OPT
EXCHANGE HF
CORRELATION MP2
BASIS 6-311G**
SCF_GUESS READ
$end

$opt
CONSTRAINT
bend 3 1 2 40.0
ENDCONSTRAINT
$end
@@@
$molecule
read
$end

$rem
JOBTYPE OPT
EXCHANGE HF
CORRELATION MP2
BASIS 6-311G**
SCF_GUESS READ
$end

$opt
CONSTRAINT
bend 3 1 2 30.0
ENDCONSTRAINT
$end
@@@
$molecule
read
$end

$rem
JOBTYPE OPT
EXCHANGE HF
CORRELATION MP2
BASIS 6-311G**
SCF_GUESS READ
$end

$opt
CONSTRAINT
bend 3 1 2 20.0
ENDCONSTRAINT
$end
@@@
$molecule
0 1
X
C X 1.0
N C 1.169686 X 90.0
H N 1.066674 X 90.0 C 180.0
$end

$rem
JOBTYPE OPT
EXCHANGE HF
CORRELATION MP2
BASIS 6-311G**
$end
