$molecule
0 1
C
H 1 1.066674
N 1 1.169686 2 80.0
$end

$rem
JOBTYPE OPT
EXCHANGE HF
CORRELATION MP2
BASIS 6-311G**
$end

$opt
CONSTRAINT
bend 3 1 2 80.0
ENDCONSTRAINT
$end
@@@
$molecule
read
$end

$rem
JOBTYPE OPT
EXCHANGE HF
CORRELATION MP2
BASIS 6-311G**
SCF_GUESS READ
$end

$opt
CONSTRAINT
bend 3 1 2 79.0
ENDCONSTRAINT
$end
@@@
$molecule
read
$end

$rem
JOBTYPE OPT
EXCHANGE HF
CORRELATION MP2
BASIS 6-311G**
SCF_GUESS READ
$end

$opt
CONSTRAINT
bend 3 1 2 78.0
ENDCONSTRAINT
$end
@@@
$molecule
read
$end

$rem
JOBTYPE OPT
EXCHANGE HF
CORRELATION MP2
BASIS 6-311G**
SCF_GUESS READ
$end

$opt
CONSTRAINT
bend 3 1 2 77.0
ENDCONSTRAINT
$end
@@@
$molecule
read
$end

$rem
JOBTYPE OPT
EXCHANGE HF
CORRELATION MP2
BASIS 6-311G**
SCF_GUESS READ
$end

$opt
CONSTRAINT
bend 3 1 2 76.0
ENDCONSTRAINT
$end
@@@
$molecule
read
$end

$rem
JOBTYPE OPT
EXCHANGE HF
CORRELATION MP2
BASIS 6-311G**
SCF_GUESS READ
$end

$opt
CONSTRAINT
bend 3 1 2 75.0
ENDCONSTRAINT
$end
@@@
$molecule
read
$end

$rem
JOBTYPE OPT
EXCHANGE HF
CORRELATION MP2
BASIS 6-311G**
SCF_GUESS READ
$end

$opt
CONSTRAINT
bend 3 1 2 74.0
ENDCONSTRAINT
$end
@@@
$molecule
read
$end

$rem
JOBTYPE OPT
EXCHANGE HF
CORRELATION MP2
BASIS 6-311G**
SCF_GUESS READ
$end

$opt
CONSTRAINT
bend 3 1 2 73.0
ENDCONSTRAINT
$end
@@@
$molecule
read
$end

$rem
JOBTYPE OPT
EXCHANGE HF
CORRELATION MP2
BASIS 6-311G**
SCF_GUESS READ
$end

$opt
CONSTRAINT
bend 3 1 2 72.0
ENDCONSTRAINT
$end
@@@
$molecule
read
$end

$rem
JOBTYPE OPT
EXCHANGE HF
CORRELATION MP2
BASIS 6-311G**
SCF_GUESS READ
$end

$opt
CONSTRAINT
bend 3 1 2 71.0
ENDCONSTRAINT
$end
@@@
$molecule
read
$end

$rem
JOBTYPE OPT
EXCHANGE HF
CORRELATION MP2
BASIS 6-311G**
SCF_GUESS READ
$end

$opt
CONSTRAINT
bend 3 1 2 70.0
ENDCONSTRAINT
$end
@@@
$molecule
read
$end

$rem
JOBTYPE OPT
EXCHANGE HF
CORRELATION MP2
BASIS 6-311G**
SCF_GUESS READ
$end

$opt
CONSTRAINT
bend 3 1 2 69.0
ENDCONSTRAINT
$end
@@@
$molecule
read
$end

$rem
JOBTYPE OPT
EXCHANGE HF
CORRELATION MP2
BASIS 6-311G**
SCF_GUESS READ
$end

$opt
CONSTRAINT
bend 3 1 2 68.0
ENDCONSTRAINT
$end
@@@
$molecule
read
$end

$rem
JOBTYPE OPT
EXCHANGE HF
CORRELATION MP2
BASIS 6-311G**
SCF_GUESS READ
$end

$opt
CONSTRAINT
bend 3 1 2 67.0
ENDCONSTRAINT
$end
@@@
$molecule
read
$end

$rem
JOBTYPE OPT
EXCHANGE HF
CORRELATION MP2
BASIS 6-311G**
SCF_GUESS READ
$end

$opt
CONSTRAINT
bend 3 1 2 66.0
ENDCONSTRAINT
$end
@@@
$molecule
read
$end

$rem
JOBTYPE OPT
EXCHANGE HF
CORRELATION MP2
BASIS 6-311G**
SCF_GUESS READ
$end

$opt
CONSTRAINT
bend 3 1 2 65.0
ENDCONSTRAINT
$end
